p cnf 200 986
1 2 3 4 5 0
6 7 8 9 10 0
11 12 13 14 15 0
16 17 18 19 20 0
21 22 23 24 25 0
26 27 28 29 30 0
31 32 33 34 35 0
36 37 38 39 40 0
41 42 43 44 45 0
46 47 48 49 50 0
51 52 53 54 55 0
56 57 58 59 60 0
61 62 63 64 65 0
66 67 68 69 70 0
71 72 73 74 75 0
76 77 78 79 80 0
81 82 83 84 85 0
86 87 88 89 90 0
91 92 93 94 95 0
96 97 98 99 100 0
101 102 103 104 105 0
106 107 108 109 110 0
111 112 113 114 115 0
116 117 118 119 120 0
121 122 123 124 125 0
126 127 128 129 130 0
131 132 133 134 135 0
136 137 138 139 140 0
141 142 143 144 145 0
146 147 148 149 150 0
151 152 153 154 155 0
156 157 158 159 160 0
161 162 163 164 165 0
166 167 168 169 170 0
171 172 173 174 175 0
176 177 178 179 180 0
181 182 183 184 185 0
186 187 188 189 190 0
191 192 193 194 195 0
196 197 198 199 200 0
-1 -2 0
-1 -3 0
-1 -4 0
-1 -5 0
-2 -3 0
-2 -4 0
-2 -5 0
-3 -4 0
-3 -5 0
-4 -5 0
-6 -7 0
-6 -8 0
-6 -9 0
-6 -10 0
-7 -8 0
-7 -9 0
-7 -10 0
-8 -9 0
-8 -10 0
-9 -10 0
-11 -12 0
-11 -13 0
-11 -14 0
-11 -15 0
-12 -13 0
-12 -14 0
-12 -15 0
-13 -14 0
-13 -15 0
-14 -15 0
-16 -17 0
-16 -18 0
-16 -19 0
-16 -20 0
-17 -18 0
-17 -19 0
-17 -20 0
-18 -19 0
-18 -20 0
-19 -20 0
-21 -22 0
-21 -23 0
-21 -24 0
-21 -25 0
-22 -23 0
-22 -24 0
-22 -25 0
-23 -24 0
-23 -25 0
-24 -25 0
-26 -27 0
-26 -28 0
-26 -29 0
-26 -30 0
-27 -28 0
-27 -29 0
-27 -30 0
-28 -29 0
-28 -30 0
-29 -30 0
-31 -32 0
-31 -33 0
-31 -34 0
-31 -35 0
-32 -33 0
-32 -34 0
-32 -35 0
-33 -34 0
-33 -35 0
-34 -35 0
-36 -37 0
-36 -38 0
-36 -39 0
-36 -40 0
-37 -38 0
-37 -39 0
-37 -40 0
-38 -39 0
-38 -40 0
-39 -40 0
-41 -42 0
-41 -43 0
-41 -44 0
-41 -45 0
-42 -43 0
-42 -44 0
-42 -45 0
-43 -44 0
-43 -45 0
-44 -45 0
-46 -47 0
-46 -48 0
-46 -49 0
-46 -50 0
-47 -48 0
-47 -49 0
-47 -50 0
-48 -49 0
-48 -50 0
-49 -50 0
-51 -52 0
-51 -53 0
-51 -54 0
-51 -55 0
-52 -53 0
-52 -54 0
-52 -55 0
-53 -54 0
-53 -55 0
-54 -55 0
-56 -57 0
-56 -58 0
-56 -59 0
-56 -60 0
-57 -58 0
-57 -59 0
-57 -60 0
-58 -59 0
-58 -60 0
-59 -60 0
-61 -62 0
-61 -63 0
-61 -64 0
-61 -65 0
-62 -63 0
-62 -64 0
-62 -65 0
-63 -64 0
-63 -65 0
-64 -65 0
-66 -67 0
-66 -68 0
-66 -69 0
-66 -70 0
-67 -68 0
-67 -69 0
-67 -70 0
-68 -69 0
-68 -70 0
-69 -70 0
-71 -72 0
-71 -73 0
-71 -74 0
-71 -75 0
-72 -73 0
-72 -74 0
-72 -75 0
-73 -74 0
-73 -75 0
-74 -75 0
-76 -77 0
-76 -78 0
-76 -79 0
-76 -80 0
-77 -78 0
-77 -79 0
-77 -80 0
-78 -79 0
-78 -80 0
-79 -80 0
-81 -82 0
-81 -83 0
-81 -84 0
-81 -85 0
-82 -83 0
-82 -84 0
-82 -85 0
-83 -84 0
-83 -85 0
-84 -85 0
-86 -87 0
-86 -88 0
-86 -89 0
-86 -90 0
-87 -88 0
-87 -89 0
-87 -90 0
-88 -89 0
-88 -90 0
-89 -90 0
-91 -92 0
-91 -93 0
-91 -94 0
-91 -95 0
-92 -93 0
-92 -94 0
-92 -95 0
-93 -94 0
-93 -95 0
-94 -95 0
-96 -97 0
-96 -98 0
-96 -99 0
-96 -100 0
-97 -98 0
-97 -99 0
-97 -100 0
-98 -99 0
-98 -100 0
-99 -100 0
-101 -102 0
-101 -103 0
-101 -104 0
-101 -105 0
-102 -103 0
-102 -104 0
-102 -105 0
-103 -104 0
-103 -105 0
-104 -105 0
-106 -107 0
-106 -108 0
-106 -109 0
-106 -110 0
-107 -108 0
-107 -109 0
-107 -110 0
-108 -109 0
-108 -110 0
-109 -110 0
-111 -112 0
-111 -113 0
-111 -114 0
-111 -115 0
-112 -113 0
-112 -114 0
-112 -115 0
-113 -114 0
-113 -115 0
-114 -115 0
-116 -117 0
-116 -118 0
-116 -119 0
-116 -120 0
-117 -118 0
-117 -119 0
-117 -120 0
-118 -119 0
-118 -120 0
-119 -120 0
-121 -122 0
-121 -123 0
-121 -124 0
-121 -125 0
-122 -123 0
-122 -124 0
-122 -125 0
-123 -124 0
-123 -125 0
-124 -125 0
-126 -127 0
-126 -128 0
-126 -129 0
-126 -130 0
-127 -128 0
-127 -129 0
-127 -130 0
-128 -129 0
-128 -130 0
-129 -130 0
-131 -132 0
-131 -133 0
-131 -134 0
-131 -135 0
-132 -133 0
-132 -134 0
-132 -135 0
-133 -134 0
-133 -135 0
-134 -135 0
-136 -137 0
-136 -138 0
-136 -139 0
-136 -140 0
-137 -138 0
-137 -139 0
-137 -140 0
-138 -139 0
-138 -140 0
-139 -140 0
-141 -142 0
-141 -143 0
-141 -144 0
-141 -145 0
-142 -143 0
-142 -144 0
-142 -145 0
-143 -144 0
-143 -145 0
-144 -145 0
-146 -147 0
-146 -148 0
-146 -149 0
-146 -150 0
-147 -148 0
-147 -149 0
-147 -150 0
-148 -149 0
-148 -150 0
-149 -150 0
-151 -152 0
-151 -153 0
-151 -154 0
-151 -155 0
-152 -153 0
-152 -154 0
-152 -155 0
-153 -154 0
-153 -155 0
-154 -155 0
-156 -157 0
-156 -158 0
-156 -159 0
-156 -160 0
-157 -158 0
-157 -159 0
-157 -160 0
-158 -159 0
-158 -160 0
-159 -160 0
-161 -162 0
-161 -163 0
-161 -164 0
-161 -165 0
-162 -163 0
-162 -164 0
-162 -165 0
-163 -164 0
-163 -165 0
-164 -165 0
-166 -167 0
-166 -168 0
-166 -169 0
-166 -170 0
-167 -168 0
-167 -169 0
-167 -170 0
-168 -169 0
-168 -170 0
-169 -170 0
-171 -172 0
-171 -173 0
-171 -174 0
-171 -175 0
-172 -173 0
-172 -174 0
-172 -175 0
-173 -174 0
-173 -175 0
-174 -175 0
-176 -177 0
-176 -178 0
-176 -179 0
-176 -180 0
-177 -178 0
-177 -179 0
-177 -180 0
-178 -179 0
-178 -180 0
-179 -180 0
-181 -182 0
-181 -183 0
-181 -184 0
-181 -185 0
-182 -183 0
-182 -184 0
-182 -185 0
-183 -184 0
-183 -185 0
-184 -185 0
-186 -187 0
-186 -188 0
-186 -189 0
-186 -190 0
-187 -188 0
-187 -189 0
-187 -190 0
-188 -189 0
-188 -190 0
-189 -190 0
-191 -192 0
-191 -193 0
-191 -194 0
-191 -195 0
-192 -193 0
-192 -194 0
-192 -195 0
-193 -194 0
-193 -195 0
-194 -195 0
-196 -197 0
-196 -198 0
-196 -199 0
-196 -200 0
-197 -198 0
-197 -199 0
-197 -200 0
-198 -199 0
-198 -200 0
-199 -200 0
-3 -23 0
-4 -25 0
-5 -23 0
-1 -21 0
-1 -23 0
-2 -23 0
-2 -25 0
-1 -51 0
-3 -54 0
-4 -53 0
-5 -52 0
-3 -53 0
-5 -53 0
-3 -52 0
-1 -70 0
-3 -67 0
-2 -67 0
-1 -67 0
-4 -66 0
-4 -68 0
-5 -66 0
-3 -142 0
-3 -144 0
-5 -141 0
-1 -141 0
-5 -144 0
-4 -142 0
-2 -144 0
-2 -192 0
-4 -193 0
-2 -191 0
-5 -194 0
-4 -195 0
-2 -193 0
-3 -195 0
-6 -28 0
-6 -30 0
-10 -28 0
-10 -29 0
-9 -28 0
-7 -29 0
-8 -26 0
-6 -119 0
-7 -120 0
-8 -120 0
-8 -116 0
-9 -118 0
-6 -118 0
-10 -116 0
-7 -180 0
-8 -176 0
-6 -177 0
-7 -178 0
-10 -177 0
-8 -180 0
-10 -178 0
-12 -25 0
-11 -25 0
-12 -23 0
-15 -24 0
-14 -24 0
-12 -24 0
-11 -23 0
-11 -27 0
-14 -29 0
-14 -27 0
-13 -30 0
-14 -30 0
-13 -28 0
-12 -26 0
-13 -129 0
-13 -126 0
-13 -128 0
-13 -127 0
-15 -128 0
-14 -130 0
-15 -127 0
-13 -131 0
-11 -131 0
-13 -133 0
-11 -134 0
-12 -134 0
-12 -132 0
-15 -133 0
-11 -151 0
-12 -154 0
-15 -151 0
-14 -154 0
-12 -151 0
-15 -154 0
-11 -154 0
-17 -117 0
-16 -120 0
-20 -118 0
-19 -119 0
-16 -119 0
-19 -117 0
-17 -120 0
-17 -140 0
-18 -136 0
-17 -136 0
-17 -137 0
-19 -136 0
-19 -139 0
-20 -140 0
-20 -147 0
-18 -147 0
-19 -150 0
-19 -149 0
-19 -148 0
-19 -147 0
-17 -150 0
-24 -41 0
-21 -45 0
-25 -44 0
-25 -42 0
-22 -41 0
-23 -43 0
-23 -45 0
-25 -150 0
-24 -146 0
-22 -150 0
-23 -147 0
-25 -147 0
-24 -147 0
-21 -148 0
-23 -175 0
-24 -173 0
-25 -175 0
-24 -174 0
-25 -172 0
-22 -173 0
-22 -172 0
-24 -189 0
-22 -187 0
-21 -189 0
-21 -186 0
-25 -190 0
-24 -190 0
-22 -188 0
-24 -193 0
-24 -194 0
-25 -194 0
-22 -191 0
-22 -194 0
-25 -193 0
-24 -191 0
-27 -34 0
-26 -31 0
-26 -34 0
-26 -35 0
-29 -32 0
-29 -31 0
-28 -34 0
-28 -54 0
-29 -52 0
-27 -55 0
-29 -55 0
-27 -54 0
-30 -53 0
-30 -54 0
-27 -80 0
-30 -76 0
-28 -77 0
-27 -77 0
-30 -80 0
-29 -76 0
-30 -77 0
-27 -100 0
-28 -99 0
-29 -97 0
-29 -98 0
-30 -99 0
-26 -97 0
-27 -99 0
-29 -160 0
-27 -158 0
-26 -158 0
-27 -156 0
-29 -156 0
-30 -156 0
-28 -156 0
-30 -168 0
-28 -167 0
-29 -167 0
-26 -167 0
-30 -167 0
-26 -166 0
-27 -169 0
-28 -181 0
-26 -181 0
-29 -183 0
-29 -185 0
-26 -182 0
-28 -183 0
-29 -181 0
-33 -86 0
-33 -88 0
-31 -89 0
-32 -86 0
-31 -90 0
-35 -89 0
-32 -88 0
-34 -154 0
-34 -152 0
-32 -153 0
-33 -155 0
-33 -153 0
-32 -152 0
-35 -155 0
-33 -174 0
-34 -175 0
-31 -173 0
-34 -174 0
-31 -174 0
-31 -171 0
-32 -175 0
-34 -185 0
-31 -182 0
-33 -185 0
-32 -184 0
-32 -183 0
-31 -184 0
-33 -182 0
-37 -83 0
-37 -84 0
-39 -84 0
-38 -83 0
-36 -83 0
-39 -83 0
-37 -85 0
-37 -88 0
-36 -86 0
-38 -88 0
-39 -88 0
-38 -87 0
-36 -87 0
-38 -89 0
-37 -110 0
-36 -108 0
-39 -107 0
-40 -108 0
-37 -106 0
-40 -106 0
-37 -107 0
-40 -133 0
-38 -131 0
-38 -133 0
-40 -131 0
-37 -133 0
-38 -134 0
-36 -131 0
-40 -137 0
-36 -139 0
-39 -136 0
-37 -137 0
-40 -136 0
-39 -137 0
-36 -136 0
-45 -124 0
-44 -125 0
-43 -124 0
-41 -125 0
-45 -122 0
-45 -121 0
-42 -122 0
-43 -157 0
-45 -156 0
-42 -159 0
-41 -157 0
-43 -158 0
-43 -156 0
-45 -160 0
-43 -183 0
-44 -182 0
-42 -185 0
-44 -185 0
-41 -183 0
-43 -181 0
-45 -183 0
-47 -56 0
-49 -56 0
-48 -58 0
-48 -60 0
-46 -57 0
-46 -59 0
-46 -60 0
-47 -138 0
-48 -136 0
-47 -136 0
-48 -138 0
-50 -136 0
-50 -138 0
-49 -138 0
-47 -164 0
-46 -163 0
-48 -161 0
-49 -162 0
-50 -161 0
-48 -163 0
-48 -165 0
-49 -200 0
-46 -199 0
-47 -199 0
-50 -198 0
-49 -199 0
-49 -198 0
-46 -197 0
-55 -76 0
-51 -76 0
-51 -78 0
-52 -78 0
-54 -76 0
-53 -79 0
-54 -77 0
-52 -85 0
-55 -82 0
-53 -82 0
-52 -84 0
-53 -84 0
-51 -83 0
-51 -81 0
-52 -99 0
-53 -100 0
-53 -96 0
-52 -96 0
-55 -96 0
-55 -97 0
-51 -99 0
-51 -186 0
-51 -189 0
-51 -188 0
-52 -188 0
-55 -190 0
-53 -189 0
-53 -186 0
-56 -72 0
-59 -75 0
-56 -75 0
-60 -73 0
-57 -71 0
-57 -74 0
-60 -74 0
-56 -132 0
-60 -132 0
-58 -131 0
-57 -131 0
-59 -132 0
-59 -131 0
-58 -133 0
-57 -148 0
-58 -147 0
-58 -148 0
-56 -148 0
-57 -146 0
-59 -146 0
-56 -150 0
-62 -81 0
-61 -81 0
-61 -83 0
-65 -81 0
-65 -83 0
-62 -83 0
-64 -85 0
-64 -97 0
-61 -100 0
-62 -96 0
-63 -97 0
-64 -100 0
-64 -96 0
-65 -99 0
-67 -178 0
-69 -178 0
-66 -180 0
-70 -178 0
-67 -180 0
-68 -177 0
-66 -179 0
-69 -195 0
-67 -193 0
-66 -192 0
-68 -194 0
-70 -194 0
-67 -195 0
-67 -194 0
-73 -138 0
-72 -140 0
-71 -137 0
-75 -138 0
-74 -136 0
-72 -139 0
-71 -139 0
-74 -185 0
-72 -183 0
-72 -184 0
-73 -184 0
-72 -185 0
-75 -185 0
-73 -183 0
-72 -191 0
-74 -193 0
-75 -195 0
-74 -192 0
-75 -194 0
-71 -192 0
-73 -195 0
-82 -92 0
-82 -91 0
-81 -95 0
-85 -91 0
-85 -94 0
-85 -95 0
-81 -93 0
-84 -150 0
-85 -148 0
-83 -150 0
-82 -149 0
-83 -147 0
-85 -149 0
-85 -147 0
-93 -175 0
-91 -173 0
-95 -171 0
-92 -173 0
-94 -171 0
-91 -174 0
-92 -175 0
-99 -110 0
-99 -107 0
-99 -106 0
-96 -106 0
-99 -109 0
-98 -110 0
-97 -110 0
-99 -172 0
-99 -175 0
-100 -171 0
-100 -173 0
-97 -171 0
-97 -172 0
-100 -172 0
-103 -166 0
-101 -170 0
-103 -170 0
-101 -166 0
-101 -169 0
-102 -167 0
-101 -167 0
-101 -176 0
-101 -178 0
-103 -176 0
-105 -178 0
-102 -178 0
-104 -180 0
-103 -179 0
-105 -182 0
-104 -185 0
-105 -181 0
-104 -184 0
-105 -184 0
-104 -182 0
-102 -185 0
-108 -184 0
-107 -183 0
-106 -183 0
-108 -181 0
-106 -184 0
-106 -185 0
-110 -181 0
-111 -167 0
-113 -169 0
-114 -170 0
-112 -170 0
-112 -168 0
-113 -166 0
-113 -170 0
-117 -186 0
-117 -189 0
-118 -188 0
-119 -188 0
-117 -188 0
-116 -189 0
-120 -189 0
-123 -136 0
-123 -138 0
-121 -137 0
-125 -140 0
-124 -140 0
-121 -138 0
-124 -139 0
-123 -147 0
-123 -150 0
-122 -150 0
-125 -148 0
-124 -148 0
-121 -149 0
-122 -148 0
-123 -177 0
-122 -179 0
-125 -177 0
-121 -176 0
-123 -178 0
-124 -179 0
-123 -179 0
-136 -158 0
-140 -160 0
-136 -156 0
-138 -156 0
-140 -157 0
-139 -159 0
-139 -156 0
-145 -188 0
-142 -186 0
-142 -189 0
-141 -190 0
-144 -187 0
-143 -187 0
-144 -190 0
-148 -162 0
-150 -161 0
-147 -165 0
-146 -163 0
-146 -161 0
-149 -161 0
-149 -162 0
-153 -173 0
-153 -175 0
-153 -174 0
-153 -172 0
-154 -171 0
-153 -171 0
-151 -171 0
-159 -176 0
-160 -180 0
-156 -177 0
-157 -179 0
-156 -178 0
-156 -176 0
-156 -179 0
-161 -174 0
-164 -171 0
-165 -174 0
-161 -175 0
-165 -171 0
-165 -172 0
-161 -171 0
